10
5
215582
0
0
40 62 52 61 52
1
0
54 46 42 58 46
2
0
51 57 52 47 65
3
0
39 57 52 61 54
4
0
68 50 50 47 51
5
0
40 45 44 38 42
6
0
48 50 37 53 55
7
0
47 63 41 41 38
8
0
52 44 38 35 49
9
0
24 56 43 45 49
